;; Preprocessed for Astral solver
(set-info :status sat)
;; variables
(declare-const x0 Loc)
(declare-const x1 Loc)
(declare-const x2 Loc)
(declare-const x3 Loc)
(declare-const x4 Loc)
(declare-const x5 Loc)
(declare-const x6 Loc)
(declare-const x7 Loc)
(declare-const x8 Loc)
(declare-const x9 Loc)
(declare-const x10 Loc)
(declare-const x11 Loc)
(declare-const x12 Loc)
(declare-const x13 Loc)
(declare-const x14 Loc)
(declare-const x15 Loc)
(declare-const x16 Loc)
(declare-const x17 Loc)
(declare-const x18 Loc)
(declare-const x19 Loc)
(declare-const x20 Loc)
(declare-const x21 Loc)
(declare-const x22 Loc)

(assert 
		(sep 
			(= nil nil)
			(distinct x6 x16)
			(distinct x6 x17)
			(distinct x6 x12)
			(distinct x3 x18)
			(distinct x3 x7)
			(distinct x3 x10)
			(distinct x3 x13)
			(distinct x3 x9)
			(distinct x3 x15)
			(distinct x7 x11)
			(distinct x7 x16)
			(distinct x7 x12)
			(distinct x9 x10)
			(distinct x9 x14)
			(distinct x12 x18)
			(distinct x12 x13)
			(distinct x12 x15)
			(distinct x2 x11)
			(distinct x2 x4)
			(distinct x2 x7)
			(distinct x2 x14)
			(distinct x15 x16)
			(distinct x8 x13)
			(distinct x4 x9)
			(distinct x1 x11)
			(distinct x1 x4)
			(distinct x1 x7)
			(distinct x1 x10)
			(distinct x1 x2)
			(distinct x13 x16)
			(distinct x13 x17)
			(distinct x10 x11)
			(distinct x5 x14)
		(sep 
			(ls x5 x15 )
			(ls x5 x9 )
			(ls x5 x4 )
			(ls x16 x13 )
			(ls x4 x12 )
			(ls x4 x6 )
			(ls x15 x1 )
			(ls x7 x13 )
		)

		)

)

(check-sat)
